units           metal

boundary        p p f

box tilt large

atom_style      atomic

lattice custom    1.0     &
        a1      5.2754662071387965    0.0000000000000000    0.0000000000000000 &
        a2     -1.3188665517846991    2.2843438760942685    0.0000000000000000 &
        a3      0.0000000000000000    0.0000000000000000    20.000000000000000 &
	basis     0.1010312549124014  0.0328457767567142  0.447793047923347   &
	basis     0.6010277033635469  0.0438498195766344  0.447793331017289   &
	basis     0.2686871846262768  0.6981568447285512  0.473432269378347   &
	basis     0.7686828363793896  0.7138750760704556  0.473431163728048   &
	basis     0.2819972002600233  0.6942525315821738  0.544601536548830   &
	basis     0.7819958427565169  0.7444430747793834  0.544598831746420   &
	basis     0.1064237382036802  0.0347846944294362  0.376492327787089   &
	basis     0.6064196279899884  0.0525966769620144  0.376493586167150   &
	basis     0.0908474211881360  0.3529734263444604  0.559398763128237   &
	basis     0.5908453256527659  0.7033606209166229  0.559403688823263   &
	basis     0.9372931116533705  0.6498315260338796  0.362268006220476   &
	basis     0.4373181945160015  0.0993343705728215  0.362259971345989

region box1 prism 0 5.2754662071387965 0 2.2843438760942685 0 20.0 -1.3188665517846991 0 0 units box

create_box 3 box1

create_atoms 1 box  basis	1	1	&
                    basis	2	1	&
                    basis	3	1	&
                    basis	4	1	&
                    basis	5	2	&
                    basis	6	2	&
                    basis	7	2	&
                    basis	8	2	&
                    basis	9	3	&
                    basis	10	3	&
		    basis	11	3	&
		    basis	12	3		

mass 1  12.0107
mass 2  15.9999
mass 3  1.00784

pair_style      deepmd /bgfs/kjohnson/ska31/1DeePMD/paper-graphanol/doubleside/dpgen/trial-1/iter.000000/00.train/000/frozen_model.pb
pair_coeff      

neighbor        0.3 bin

