GGA=PE
PREC=A
#ENCUT=400
ISYM=0
ALGO=Fast
EDIFF=1.000000e-04
LREAL=Auto
NCORE=24
#KPAR=1
NELM=120
NELMIN=4
ISIF=2
ISMEAR=0
SIGMA=0.05000
IBRION=-1
NSW=0
LWAVE=F
LCHARG=F
#PSTRESS=0
KSPACING=0.40000
KGAMMA=.FALSE.
